Gurobi 12.0.3:   lim:time = 14400

  mip:bestbound = 1

Set parameter LogToConsole to value 1

  tech:outlev = 1

Set parameter Cuts to value 3

  cut:cuts = 3

Set parameter Presolve to value 2

  pre:solve = 2

Set parameter MIPFocus to value 2

  mip:focus = 2

Set parameter Symmetry to value 2

  mip:symmetry = 2

Set parameter InfUnbdInfo to value 1

Gurobi Optimizer version 12.0.3 build v12.0.3rc0 (win64 - Windows 11.0 (26100.2))



CPU model: 12th Gen Intel(R) Core(TM) i7-12700, instruction set [SSE2|AVX|AVX2]

Thread count: 12 physical cores, 20 logical processors, using up to 20 threads



Non-default parameters:

TimeLimit  14400

MIPFocus  2

Symmetry  2

Cuts  3

InfUnbdInfo  1

Presolve  2



Optimize a model with 338 rows, 309 columns and 1879 nonzeros

Model fingerprint: 0xdbe2233a

Model has 3 quadratic constraints

Variable types: 27 continuous, 282 integer (0 binary)

Coefficient statistics:

  Matrix range     [1e+00, 1e+05]

  QMatrix range    [1e+00, 1e+00]

  QLMatrix range   [2e+00, 2e+01]

  Objective range  [7e+00, 9e+01]

  Bounds range     [1e+00, 1e+02]

  RHS range        [1e+00, 1e+05]

  QRHS range       [1e+02, 1e+02]

Presolve removed 32 rows and 40 columns

Presolve time: 0.03s

Presolved: 453 rows, 389 columns, 2527 nonzeros

Variable types: 15 continuous, 374 integer (323 binary)

Found heuristic solution: objective 431.8800000

Root relaxation presolve removed 80 rows and 0 columns

Root relaxation presolved: 318 rows, 406 columns, 2570 nonzeros





Root relaxation: objective 1.721548e+02, 65 iterations, 0.00 seconds (0.00 work units)



    Nodes    |    Current Node    |     Objective Bounds      |     Work

 Expl Unexpl |  Obj  Depth IntInf | Incumbent    BestBd   Gap | It/Node Time



     0     0  172.15478    0   31  431.88000  172.15478  60.1%     -    0s

H    0     0                     404.8500000  172.15478  57.5%     -    0s

H    0     0                     354.9700000  172.15478  51.5%     -    0s

     0     0  214.12667    0   29  354.97000  214.12667  39.7%     -    0s

     0     0  214.12667    0   23  354.97000  214.12667  39.7%     -    0s

     0     0  214.12667    0   46  354.97000  214.12667  39.7%     -    0s

H    0     0                     338.3100000  220.53000  34.8%     -    0s

     0     0  220.53000    0   16  338.31000  220.53000  34.8%     -    0s

H    0     0                     310.6300000  220.53000  29.0%     -    0s

     0     0  220.53000    0   20  310.63000  220.53000  29.0%     -    0s

H    0     0                     303.2500000  220.53000  27.3%     -    0s

H    0     0                     298.3400000  220.53000  26.1%     -    0s

H    0     0                     263.6500000  221.38091  16.0%     -    0s

     0     0  224.03126    0   33  263.65000  224.03126  15.0%     -    0s

     0     0  226.14000    0   31  263.65000  226.14000  14.2%     -    0s

     0     0  226.14000    0   29  263.65000  226.14000  14.2%     -    0s

     0     0  226.14000    0   41  263.65000  226.14000  14.2%     -    0s

     0     0  226.14000    0   53  263.65000  226.14000  14.2%     -    0s

     0     0  226.14000    0   41  263.65000  226.14000  14.2%     -    0s

     0     0  226.14000    0   32  263.65000  226.14000  14.2%     -    0s

     0     0  226.14000    0   54  263.65000  226.14000  14.2%     -    0s

     0     0  226.14000    0   54  263.65000  226.14000  14.2%     -    0s

     0     2  226.14000    0   54  263.65000  226.14000  14.2%     -    0s



Cutting planes:

  Learned: 13

  Gomory: 14

  Lift-and-project: 1

  Cover: 6

  Implied bound: 12

  Projected implied bound: 15

  MIR: 8

  StrongCG: 4

  Flow cover: 66

  GUB cover: 2

  Inf proof: 2

  Zero half: 90

  RLT: 39

  Relax-and-lift: 15



Explored 850 nodes (10364 simplex iterations) in 0.82 seconds (0.51 work units)

Thread count was 20 (of 20 available processors)



Solution count 8: 263.65 298.34 303.25 ... 431.88



Optimal solution found (tolerance 1.00e-04)

Best objective 2.636500000000e+02, best bound 2.636500000000e+02, gap 0.0000%



AMPL MP initial flat model has 309 variables (0 integer, 282 binary);

Objectives: 1 linear; 

Constraints:  338 linear; 3 quadratic;



AMPL MP final model has 309 variables (0 integer, 282 binary);

Objectives: 1 linear; 

Constraints:  338 linear; 3 quadratic;





-----RESULTS INFO-----
running_time:  0.859
TC.best_bound:  263.65
TC:  263.65
MIP Gap (%):  0
=== Vehicle Routes ===
Vehicle 1: 0 → 1
Vehicle 1: 1 → 10
Vehicle 1: 2 → 18
Vehicle 1: 3 → 14
Vehicle 1: 10 → 3
Vehicle 1: 14 → 2
Vehicle 2: 0 → 4
Vehicle 2: 4 → 18
Vehicle 3: 0 → 18

=== Full Vehicle Routes ===
Vehicle 1: 0 → 1 → 10 → 3 → 14 → 2 → 0 (87<100)
Vehicle 2: 0 → 4 → 0 (14<100)
Vehicle 3: 0 → 0 (0<100)
Arc used by MRT line: y variables:
Customer assigment to PL: u variables:
5 10
6 14
7 14
8 10
Node is served by regular vehicle: g variables:
1
2
3
4
10
14
Customer assigment to Home delivery: gm variables:
1
2
3
4
Node total demands: ntd variables:
1 2 1
2 2 1
3 21 1
4 14 1
7 0 0
8 0 0
15 0 0
16 0 0
17 0 0
9 0 0
10 22 1
11 0 0
12 0 0
13 0 0
14 40 1
Customer's demand delivered to PL: l variables:
5
6
7
8
Lockers load <= capacity:
0 <= 90
0 <= 85
0 <= 96
0 <= 78
22 <= 83
0 <= 95
0 <= 85
0 <= 83
40 <= 91
